(set-info :smt-lib-version 2.6)
(set-logic AUFBVFPDTNIRA)
(set-info :source |
Generated by: AdaCore
Generated on: 2020-03-06
Generator: SPARK
Application: Program verification for Ada
Target solver: CVC4
|)
(set-info :license "https://creativecommons.org/licenses/by/4.0/")
(set-info :category "industrial")
(set-info :status unknown)
;;; generated by SMT-LIB2 driver
;;; SMT-LIB2 driver: bit-vectors, common part
;;; SMT-LIB2: integer arithmetic
(declare-sort string 0)

(declare-datatypes ((tuple0 0))
(((Tuple0))))
(declare-sort us_private 0)

(declare-fun private__bool_eq (us_private us_private) Bool)

(declare-const us_null_ext__ us_private)

(declare-sort us_type_of_heap 0)

(declare-datatypes ((us_type_of_heap__ref 0))
(((us_type_of_heap__refqtmk (us_type_of_heap__content us_type_of_heap)))))
(declare-sort us_image 0)

(declare-datatypes ((int__ref 0))
(((int__refqtmk (int__content Int)))))
(declare-datatypes ((bool__ref 0))
(((bool__refqtmk (bool__content Bool)))))
(declare-datatypes ((us_fixed__ref 0))
(((us_fixed__refqtmk (us_fixed__content Int)))))
(declare-datatypes ((real__ref 0))
(((real__refqtmk (real__content Real)))))
(declare-datatypes ((us_private__ref 0))
(((us_private__refqtmk (us_private__content us_private)))))
(define-fun int__ref___projection ((a int__ref)) Int (int__content a))

(define-fun us_fixed__ref___projection ((a us_fixed__ref)) Int (us_fixed__content
                                                               a))

(define-fun bool__ref___projection ((a bool__ref)) Bool (bool__content a))

(define-fun real__ref___projection ((a real__ref)) Real (real__content a))

(define-fun us_private__ref___projection ((a us_private__ref)) us_private 
  (us_private__content a))

(define-fun in_range ((x Int)) Bool (or (= x 0) (= x 1)))

(declare-fun attr__ATTRIBUTE_IMAGE (Bool) us_image)

(declare-fun attr__ATTRIBUTE_VALUE__pre_check (us_image) Bool)

(declare-fun attr__ATTRIBUTE_VALUE (us_image) Bool)

(declare-sort natural 0)

(declare-fun naturalqtint (natural) Int)

;; natural'axiom
  (assert
  (forall ((i natural))
  (and (<= 0 (naturalqtint i)) (<= (naturalqtint i) 2147483647))))

(define-fun in_range1 ((x Int)) Bool (and (<= 0 x) (<= x 2147483647)))

(declare-fun attr__ATTRIBUTE_IMAGE1 (Int) us_image)

(declare-fun attr__ATTRIBUTE_VALUE__pre_check1 (us_image) Bool)

(declare-fun attr__ATTRIBUTE_VALUE1 (us_image) Int)

(declare-fun user_eq (natural natural) Bool)

(declare-const dummy natural)

(declare-datatypes ((natural__ref 0))
(((natural__refqtmk (natural__content natural)))))
(define-fun natural__ref_natural__content__projection ((a natural__ref)) natural 
  (natural__content a))

(define-fun to_rep ((x natural)) Int (naturalqtint x))

(declare-fun of_rep (Int) natural)

;; inversion_axiom
  (assert
  (forall ((x natural)) (! (= (of_rep (to_rep x)) x) :pattern ((to_rep x)) )))

;; range_axiom
  (assert
  (forall ((x natural)) (! (in_range1 (to_rep x)) :pattern ((to_rep x)) )))

;; coerce_axiom
  (assert
  (forall ((x Int))
  (! (=> (in_range1 x) (= (to_rep (of_rep x)) x)) :pattern ((to_rep
                                                            (of_rep x))) )))

(declare-datatypes ((map__ref 0))
(((map__refqtmk (map__content (Array Int natural))))))
(declare-fun slide ((Array Int natural) Int Int) (Array Int natural))

;; slide_eq
  (assert
  (forall ((a (Array Int natural)))
  (forall ((first Int))
  (! (= (slide a first first) a) :pattern ((slide a first first)) ))))

;; slide_def
  (assert
  (forall ((a (Array Int natural)))
  (forall ((old_first Int))
  (forall ((new_first Int))
  (forall ((i Int))
  (! (= (select (slide a old_first new_first) i) (select a (- i (- new_first old_first)))) :pattern ((select 
  (slide a old_first new_first) i)) ))))))

(define-fun bool_eq ((a (Array Int natural)) (a__first Int) (a__last Int)
  (b (Array Int natural)) (b__first Int)
  (b__last Int)) Bool (ite (and
                           (ite (<= a__first a__last)
                           (and (<= b__first b__last)
                           (= (- a__last a__first) (- b__last b__first)))
                           (< b__last b__first))
                           (forall ((temp___idx_154 Int))
                           (=>
                           (and (<= a__first temp___idx_154)
                           (<= temp___idx_154 a__last))
                           (= (to_rep (select a temp___idx_154)) (to_rep
                                                                 (select b (+ (- b__first a__first) temp___idx_154)))))))
                      true false))

;; bool_eq_rev
  (assert
  (forall ((a (Array Int natural)) (b (Array Int natural)))
  (forall ((a__first Int) (a__last Int) (b__first Int) (b__last Int))
  (=> (= (bool_eq b b__first b__last a a__first a__last) true)
  (and
  (ite (<= a__first a__last)
  (and (<= b__first b__last) (= (- a__last a__first) (- b__last b__first)))
  (< b__last b__first))
  (forall ((temp___idx_154 Int))
  (=> (and (<= a__first temp___idx_154) (<= temp___idx_154 a__last))
  (= (to_rep (select a temp___idx_154)) (to_rep
                                        (select b (+ (- b__first a__first) temp___idx_154)))))))))))

(declare-const attr__ATTRIBUTE_ADDRESS Int)

(declare-const attr__ATTRIBUTE_ADDRESS1 Int)

(declare-sort index 0)

(declare-fun indexqtint (index) Int)

;; index'axiom
  (assert
  (forall ((i index)) (and (<= 1 (indexqtint i)) (<= (indexqtint i) 10))))

(define-fun in_range2 ((x Int)) Bool (and (<= 1 x) (<= x 10)))

(declare-fun attr__ATTRIBUTE_IMAGE2 (Int) us_image)

(declare-fun attr__ATTRIBUTE_VALUE__pre_check2 (us_image) Bool)

(declare-fun attr__ATTRIBUTE_VALUE2 (us_image) Int)

(declare-fun user_eq1 (index index) Bool)

(declare-const dummy1 index)

(declare-datatypes ((index__ref 0))
(((index__refqtmk (index__content index)))))
(define-fun index__ref_index__content__projection ((a index__ref)) index 
  (index__content a))

(define-fun dynamic_invariant ((temp___expr_39 Int) (temp___is_init_35 Bool)
  (temp___skip_constant_36 Bool) (temp___do_toplevel_37 Bool)
  (temp___do_typ_inv_38 Bool)) Bool (=>
                                    (or (= temp___is_init_35 true)
                                    (<= 0 2147483647)) (in_range1
                                    temp___expr_39)))

(define-fun dynamic_invariant1 ((temp___expr_160 Int)
  (temp___is_init_156 Bool) (temp___skip_constant_157 Bool)
  (temp___do_toplevel_158 Bool)
  (temp___do_typ_inv_159 Bool)) Bool (=>
                                     (or (= temp___is_init_156 true)
                                     (<= 1 10)) (in_range2 temp___expr_160)))

(declare-const rliteral natural)

;; rliteral_axiom
  (assert (= (naturalqtint rliteral) 10))

(assert
;; defqtvc
 ;; File "frame.ads", line 10, characters 0-0
  (not
  (forall ((a (Array Int natural)) (j Int)
  (temp___loop_entry_208 (Array Int natural))
  (temp___loop_entry_209 (Array Int natural)) (spark__branch Bool)
  (a1 (Array Int natural)) (k Int))
  (=> (= j 1)
  (=> (= (and (ite (<= 1 j) true false) (ite (<= j 10) true false)) true)
  (=> (= temp___loop_entry_208 a)
  (=> (= temp___loop_entry_209 a)
  (=>
  (exists ((o Int))
  (and (= (to_rep (select a j)) o)
  (and (= spark__branch (ite (< 10 o) true false))
  (ite (= spark__branch true) (= a1 (store a j rliteral)) (= a1 a)))))
  (=> (<= 1 k)
  (=> (<= k j)
  (= (to_rep (select a1 k)) (ite (< 10 (to_rep
                                       (select temp___loop_entry_209 k)))
                            10 (to_rep (select temp___loop_entry_208 k))))))))))))))
(check-sat)
